2871400044201201720508,11,1,2,08,13,1,2,08,14,1,2,02,15,1,2,08,9,1,2,05,2,1,2,013,3,1,2,07,4,1,2,03,2,1,2,06,10,1,2,06,15,1,2,013,5,1,2,011,3,1,2,010,2,1,2,012,1,1,2,03,8,1,2,014,1,1,2,06,1,1,2,013,7,1,2,05,8,1,2,013,13,1,2,02,11,1,2,07,7,1,2,08,3,1,2,06,7,1,2,02,10,1,2,012,7,1,2,011,9,1,2,015,10,1,2,013,1,1,2,015,10,1,2,08,4,1,2,03,7,1,2,011,9,1,2,013,11,1,2,01,12,1,2,011,14,1,2,07,1,1,2,09,5,1,2,01,12,1,2,01,12,1,2,08,4,1,2,013,3,1,2,06,3,1,2,07,7,1,2,07,5,1,2,010,7,1,2,01,14,1,2,07,10,1,2,02,12,1,2,0